instances/knapsack/discrete/knapsack_110_17.lp
\ Model knapsack_110_17
\ LP format - for model browsing. Use MPS format to capture full model detail.
\ Signature: 0x1c7a262dccd0e095
Minimize
  - 48 x[0] - 68 x[1] - 42 x[2] - 82 x[3] - 47 x[4] - 15 x[5] - 15 x[6]
   - 93 x[7] - 56 x[8] - 60 x[9] - 25 x[10] - 25 x[11] - 9 x[12] - 72 x[13]
   - 25 x[14] - 26 x[15] - 48 x[16] - 16 x[17] - 92 x[18] - 3 x[19]
   - 15 x[20] - 13 x[21] - 2 x[22] - 42 x[23] - 95 x[24] - 4 x[25]
   - 98 x[26] - 73 x[27] - 36 x[28] - 74 x[29] - 63 x[30] - 2 x[31]
   - 86 x[32] - 65 x[33] - 77 x[34] - 39 x[35] - 3 x[36] - 85 x[37]
   - 24 x[38] - 41 x[39] - 26 x[40] - 95 x[41] - 43 x[42] - 41 x[43]
   - 48 x[44] - 81 x[45] - 62 x[46] - 54 x[47] - 50 x[48] - 87 x[49]
   - 57 x[50] - 84 x[51] - 21 x[52] - 47 x[53] - 30 x[54] - 60 x[55]
   - 44 x[56] - 86 x[57] - 66 x[58] - 93 x[59] - 34 x[60] - 44 x[61]
   - 3 x[62] - 51 x[63] - 8 x[64] - 71 x[65] - 3 x[66] - 11 x[67]
   - 98 x[68] - 11 x[69] - 63 x[70] - 5 x[71] - 55 x[72] - 43 x[73]
   - 52 x[74] - 68 x[75] - 36 x[76] - 15 x[77] - 62 x[78] - 17 x[79]
   - 93 x[80] - 76 x[81] - 15 x[82] - 28 x[83] - 95 x[84] - 78 x[85]
   - 84 x[86] - 65 x[87] - 30 x[88] - 36 x[89] - 28 x[90] - 99 x[91]
   - 55 x[92] - 74 x[93] - 62 x[94] - 28 x[95] - 63 x[96] - 74 x[97]
   - 26 x[98] - 46 x[99] - 38 x[100] - 59 x[101] - 100 x[102] - 35 x[103]
   - 73 x[104] - 89 x[105] - 44 x[106] - 2 x[107] - 76 x[108] - 26 x[109]
Subject To
 primal_upper: 3 x[0] + 80 x[1] + 42 x[2] + 75 x[3] + 96 x[4] + 97 x[5]
   + 33 x[6] + 91 x[7] + 9 x[8] + 66 x[9] + 15 x[10] + 59 x[11] + 8 x[12]
   + 16 x[13] + 60 x[14] + 80 x[15] + 49 x[16] + 20 x[17] + x[18]
   + 54 x[19] + 17 x[20] + 63 x[21] + 56 x[22] + 14 x[23] + 72 x[24]
   + 80 x[25] + 2 x[26] + 75 x[27] + 93 x[28] + 55 x[29] + 61 x[30]
   + 7 x[31] + 23 x[32] + 53 x[33] + 4 x[34] + 13 x[35] + 100 x[36]
   + 64 x[37] + 4 x[38] + 30 x[39] + 31 x[40] + 81 x[41] + 78 x[42]
   + 69 x[43] + 23 x[44] + 46 x[45] + 17 x[46] + 69 x[47] + 35 x[48]
   + 24 x[49] + 58 x[50] + 4 x[51] + 85 x[52] + 16 x[53] + 56 x[54]
   + 91 x[55] + 13 x[56] + 26 x[57] + 60 x[58] + 38 x[59] + 88 x[60]
   + 58 x[61] + 91 x[62] + 90 x[63] + 39 x[64] + 88 x[65] + 96 x[66]
   + 70 x[67] + 84 x[68] + 81 x[69] + x[70] + 89 x[71] + 42 x[72]
   + 43 x[73] + 23 x[74] + 80 x[75] + 22 x[76] + 55 x[77] + 64 x[78]
   + 22 x[79] + 41 x[80] + x[81] + 90 x[82] + 81 x[83] + 37 x[84] + 5 x[85]
   + 63 x[86] + 8 x[87] + 66 x[88] + 15 x[89] + 40 x[90] + 60 x[91]
   + 92 x[92] + 79 x[93] + 8 x[94] + 85 x[95] + 17 x[96] + 20 x[97]
   + 68 x[98] + 44 x[99] + 73 x[100] + 72 x[101] + 66 x[102] + 16 x[103]
   + 29 x[104] + 70 x[105] + 27 x[106] + 30 x[107] + 2 x[108] + 77 x[109]
   + 0.3 r[0] + 8 r[1] + 4.2 r[2] + 7.5 r[3] + 9.6 r[4] + 9.7 r[5]
   + 3.3 r[6] + 9.1 r[7] + 0.9 r[8] + 6.6 r[9] + 1.5 r[10] + 5.9 r[11]
   + 0.8 r[12] + 1.6 r[13] + 6 r[14] + 8 r[15] + 4.9 r[16] + 2 r[17]
   + 0.1 r[18] + 5.4 r[19] + 1.7 r[20] + 6.3 r[21] + 5.6 r[22] + 1.4 r[23]
   + 7.2 r[24] + 8 r[25] + 0.2 r[26] + 7.5 r[27] + 9.3 r[28] + 5.5 r[29]
   + 6.1 r[30] + 0.7 r[31] + 2.3 r[32] + 5.3 r[33] + 0.4 r[34] + 1.3 r[35]
   + 10 r[36] + 6.4 r[37] + 0.4 r[38] + 3 r[39] + 3.1 r[40] + 8.1 r[41]
   + 7.8 r[42] + 6.9 r[43] + 2.3 r[44] + 4.6 r[45] + 1.7 r[46] + 6.9 r[47]
   + 3.5 r[48] + 2.4 r[49] + 5.8 r[50] + 0.4 r[51] + 8.5 r[52] + 1.6 r[53]
   + 5.6 r[54] + 9.1 r[55] + 1.3 r[56] + 2.6 r[57] + 6 r[58] + 3.8 r[59]
   + 8.8 r[60] + 5.8 r[61] + 9.1 r[62] + 9 r[63] + 3.9 r[64] + 8.8 r[65]
   + 9.6 r[66] + 7 r[67] + 8.4 r[68] + 8.1 r[69] + 0.1 r[70] + 8.9 r[71]
   + 4.2 r[72] + 4.3 r[73] + 2.3 r[74] + 8 r[75] + 2.2 r[76] + 5.5 r[77]
   + 6.4 r[78] + 2.2 r[79] + 4.1 r[80] + 0.1 r[81] + 9 r[82] + 8.1 r[83]
   + 3.7 r[84] + 0.5 r[85] + 6.3 r[86] + 0.8 r[87] + 6.6 r[88] + 1.5 r[89]
   + 4 r[90] + 6 r[91] + 9.2 r[92] + 7.9 r[93] + 0.8 r[94] + 8.5 r[95]
   + 1.7 r[96] + 2 r[97] + 6.8 r[98] + 4.4 r[99] + 7.3 r[100] + 7.2 r[101]
   + 6.6 r[102] + 1.6 r[103] + 2.9 r[104] + 7 r[105] + 2.7 r[106]
   + 3 r[107] + 0.2 r[108] + 7.7 r[109] <= 511
 primal_lower: 0.0223855263523206 x[0] + 3.290572064545244 x[1]
   + 2.966165308086234 x[2] + 3.205336137012532 x[3]
   + 4.277444560707116 x[4] + 0.5220869256343793 x[5]
   + 3.045942871142341 x[6] + 4.043176123439356 x[7]
   + 1.894324788659573 x[8] + 0.6665309254237669 x[9]
   + 3.205413659210857 x[10] + 2.987058302844527 x[11]
   + 0.2000499574797464 x[12] + 1.479775645504843 x[13]
   + 1.195085816168555 x[14] + 1.818512191620194 x[15]
   + 2.420196206980882 x[16] + 4.317510480291516 x[17]
   + 0.4499386510390959 x[18] + 0.1631650389852092 x[19]
   + 2.15777952273039 x[20] + 0.1344705033809994 x[21]
   + 4.338602305083675 x[22] + 3.921451457582426 x[23]
   + 0.6432080750219425 x[24] + 0.521447447719387 x[25]
   + 0.8082007838899805 x[26] + 1.781516174441666 x[27]
   + 3.245877418866862 x[28] + 0.9426389757646304 x[29]
   + 4.558111610947888 x[30] + 4.052641644330782 x[31]
   + 3.372263151832176 x[32] + 1.643041338136276 x[33]
   + 2.000809064988798 x[34] + 3.648019298561785 x[35]
   + 0.3466879575552535 x[36] + 1.385523653020359 x[37]
   + 4.116575047500352 x[38] + 2.818814628840663 x[39]
   + 2.036501998260552 x[40] + 1.391086924156447 x[41]
   + 1.334165816757421 x[42] + 1.825952730908217 x[43]
   + 3.068866786756933 x[44] + 0.6943132879785995 x[45]
   + 4.097544722596283 x[46] + 3.432189775548509 x[47]
   + 1.935464581911594 x[48] + 3.262152286116122 x[49]
   + 3.413780522398899 x[50] + 2.329208037736415 x[51]
   + 3.984030736580022 x[52] + 3.146252041322988 x[53]
   + 1.796803675344459 x[54] + 3.54001345002662 x[55]
   + 2.688867851228582 x[56] + 0.8039938572074994 x[57]
   + 1.653639762269494 x[58] + 0.1634166572762873 x[59]
   + 3.072280216642251 x[60] + 0.2951161399899901 x[61]
   + 0.5096107365551467 x[62] + 4.587427656255376 x[63]
   + 3.792749874626322 x[64] + 2.650258878676511 x[65]
   + 1.829753122446435 x[66] + 3.533290807532626 x[67]
   + 0.3510357217143076 x[68] + 3.976160753342485 x[69]
   + 4.464738383595611 x[70] + 1.963303853513831 x[71]
   + 2.74608061627277 x[72] + 3.112199527629412 x[73]
   + 2.850376512849617 x[74] + 2.180495622250547 x[75]
   + 3.197428008332458 x[76] + 0.2770312713871562 x[77]
   + 1.710423569855968 x[78] + 4.3442313519634 x[79]
   + 3.703114330918222 x[80] + 0.0960011005623433 x[81]
   + 1.674019715279796 x[82] + 2.224075399062879 x[83]
   + 4.288673868977019 x[84] + 4.507955230918538 x[85]
   + 2.293241278664459 x[86] + 4.021960038262086 x[87]
   + 1.412223093872951 x[88] + 1.552656441154553 x[89]
   + 1.518451309196217 x[90] + 4.530297154424964 x[91]
   + 3.053835759635363 x[92] + 1.001315419887568 x[93]
   + 2.219867376157242 x[94] + 2.572582859201924 x[95]
   + 3.084165343148188 x[96] + 0.9202523772286422 x[97]
   + 3.449918739344433 x[98] + 0.7762205455393506 x[99]
   + 1.528791474136129 x[100] + 0.4990874540950853 x[101]
   + 1.830353370040311 x[102] + 0.4230166720569322 x[103]
   + 0.9197207017478036 x[104] + 1.759675534620782 x[105]
   + 1.091628937812666 x[106] + 0.0902420955707663 x[107]
   + 1.127305916191128 x[108] + 0.4477801823641653 x[109] + 2 u[0]
   + 46 u[1] + 60 u[2] + 13 u[3] + 38 u[4] + 36 u[5] + 83 u[6] + 22 u[7]
   + 87 u[8] + 68 u[9] + 42 u[10] + 69 u[11] + 38 u[12] + 86 u[13]
   + 35 u[14] + 27 u[15] + 39 u[16] + 50 u[17] + 95 u[18] + 32 u[19]
   + 7 u[20] + 46 u[21] + 82 u[22] + 97 u[23] + 3 u[24] + 82 u[25]
   + 76 u[26] + 46 u[27] + 36 u[28] + 9 u[29] + 24 u[30] + 98 u[31]
   + 6 u[32] + 59 u[33] + 58 u[34] + 3 u[35] + 78 u[36] + 19 u[37]
   + 34 u[38] + 25 u[39] + 5 u[40] + 12 u[41] + 100 u[42] + 84 u[43]
   + 13 u[44] + 9 u[45] + 4 u[46] + 4 u[47] + 29 u[48] + 46 u[49]
   + 93 u[50] + 10 u[51] + 95 u[52] + 22 u[53] + 91 u[54] + 90 u[55]
   + 63 u[56] + 65 u[57] + 82 u[58] + 16 u[59] + 83 u[60] + 77 u[61]
   + 86 u[62] + 53 u[63] + 94 u[64] + 6 u[65] + 3 u[66] + 77 u[67]
   + 70 u[68] + 56 u[69] + 44 u[70] + 24 u[71] + 72 u[72] + 45 u[73]
   + 18 u[74] + 23 u[75] + 37 u[76] + 17 u[77] + 43 u[78] + 25 u[79]
   + 76 u[80] + 56 u[81] + 17 u[82] + 36 u[83] + 8 u[84] + 28 u[85]
   + 74 u[86] + 66 u[87] + 56 u[88] + 17 u[89] + 15 u[90] + 67 u[91]
   + 51 u[92] + 86 u[93] + 86 u[94] + 91 u[95] + 7 u[96] + 91 u[97]
   + 94 u[98] + 46 u[99] + 15 u[100] + 18 u[101] + 96 u[102] + 46 u[103]
   + 99 u[104] + 16 u[105] + 97 u[106] + 17 u[107] + 93 u[108] + 39 u[109]
   <= 61094
 mccormick1[0]: - u[0] + r[0] <= 0
 mccormick1[1]: - u[1] + r[1] <= 0
 mccormick1[2]: - u[2] + r[2] <= 0
 mccormick1[3]: - u[3] + r[3] <= 0
 mccormick1[4]: - u[4] + r[4] <= 0
 mccormick1[5]: - u[5] + r[5] <= 0
 mccormick1[6]: - u[6] + r[6] <= 0
 mccormick1[7]: - u[7] + r[7] <= 0
 mccormick1[8]: - u[8] + r[8] <= 0
 mccormick1[9]: - u[9] + r[9] <= 0
 mccormick1[10]: - u[10] + r[10] <= 0
 mccormick1[11]: - u[11] + r[11] <= 0
 mccormick1[12]: - u[12] + r[12] <= 0
 mccormick1[13]: - u[13] + r[13] <= 0
 mccormick1[14]: - u[14] + r[14] <= 0
 mccormick1[15]: - u[15] + r[15] <= 0
 mccormick1[16]: - u[16] + r[16] <= 0
 mccormick1[17]: - u[17] + r[17] <= 0
 mccormick1[18]: - u[18] + r[18] <= 0
 mccormick1[19]: - u[19] + r[19] <= 0
 mccormick1[20]: - u[20] + r[20] <= 0
 mccormick1[21]: - u[21] + r[21] <= 0
 mccormick1[22]: - u[22] + r[22] <= 0
 mccormick1[23]: - u[23] + r[23] <= 0
 mccormick1[24]: - u[24] + r[24] <= 0
 mccormick1[25]: - u[25] + r[25] <= 0
 mccormick1[26]: - u[26] + r[26] <= 0
 mccormick1[27]: - u[27] + r[27] <= 0
 mccormick1[28]: - u[28] + r[28] <= 0
 mccormick1[29]: - u[29] + r[29] <= 0
 mccormick1[30]: - u[30] + r[30] <= 0
 mccormick1[31]: - u[31] + r[31] <= 0
 mccormick1[32]: - u[32] + r[32] <= 0
 mccormick1[33]: - u[33] + r[33] <= 0
 mccormick1[34]: - u[34] + r[34] <= 0
 mccormick1[35]: - u[35] + r[35] <= 0
 mccormick1[36]: - u[36] + r[36] <= 0
 mccormick1[37]: - u[37] + r[37] <= 0
 mccormick1[38]: - u[38] + r[38] <= 0
 mccormick1[39]: - u[39] + r[39] <= 0
 mccormick1[40]: - u[40] + r[40] <= 0
 mccormick1[41]: - u[41] + r[41] <= 0
 mccormick1[42]: - u[42] + r[42] <= 0
 mccormick1[43]: - u[43] + r[43] <= 0
 mccormick1[44]: - u[44] + r[44] <= 0
 mccormick1[45]: - u[45] + r[45] <= 0
 mccormick1[46]: - u[46] + r[46] <= 0
 mccormick1[47]: - u[47] + r[47] <= 0
 mccormick1[48]: - u[48] + r[48] <= 0
 mccormick1[49]: - u[49] + r[49] <= 0
 mccormick1[50]: - u[50] + r[50] <= 0
 mccormick1[51]: - u[51] + r[51] <= 0
 mccormick1[52]: - u[52] + r[52] <= 0
 mccormick1[53]: - u[53] + r[53] <= 0
 mccormick1[54]: - u[54] + r[54] <= 0
 mccormick1[55]: - u[55] + r[55] <= 0
 mccormick1[56]: - u[56] + r[56] <= 0
 mccormick1[57]: - u[57] + r[57] <= 0
 mccormick1[58]: - u[58] + r[58] <= 0
 mccormick1[59]: - u[59] + r[59] <= 0
 mccormick1[60]: - u[60] + r[60] <= 0
 mccormick1[61]: - u[61] + r[61] <= 0
 mccormick1[62]: - u[62] + r[62] <= 0
 mccormick1[63]: - u[63] + r[63] <= 0
 mccormick1[64]: - u[64] + r[64] <= 0
 mccormick1[65]: - u[65] + r[65] <= 0
 mccormick1[66]: - u[66] + r[66] <= 0
 mccormick1[67]: - u[67] + r[67] <= 0
 mccormick1[68]: - u[68] + r[68] <= 0
 mccormick1[69]: - u[69] + r[69] <= 0
 mccormick1[70]: - u[70] + r[70] <= 0
 mccormick1[71]: - u[71] + r[71] <= 0
 mccormick1[72]: - u[72] + r[72] <= 0
 mccormick1[73]: - u[73] + r[73] <= 0
 mccormick1[74]: - u[74] + r[74] <= 0
 mccormick1[75]: - u[75] + r[75] <= 0
 mccormick1[76]: - u[76] + r[76] <= 0
 mccormick1[77]: - u[77] + r[77] <= 0
 mccormick1[78]: - u[78] + r[78] <= 0
 mccormick1[79]: - u[79] + r[79] <= 0
 mccormick1[80]: - u[80] + r[80] <= 0
 mccormick1[81]: - u[81] + r[81] <= 0
 mccormick1[82]: - u[82] + r[82] <= 0
 mccormick1[83]: - u[83] + r[83] <= 0
 mccormick1[84]: - u[84] + r[84] <= 0
 mccormick1[85]: - u[85] + r[85] <= 0
 mccormick1[86]: - u[86] + r[86] <= 0
 mccormick1[87]: - u[87] + r[87] <= 0
 mccormick1[88]: - u[88] + r[88] <= 0
 mccormick1[89]: - u[89] + r[89] <= 0
 mccormick1[90]: - u[90] + r[90] <= 0
 mccormick1[91]: - u[91] + r[91] <= 0
 mccormick1[92]: - u[92] + r[92] <= 0
 mccormick1[93]: - u[93] + r[93] <= 0
 mccormick1[94]: - u[94] + r[94] <= 0
 mccormick1[95]: - u[95] + r[95] <= 0
 mccormick1[96]: - u[96] + r[96] <= 0
 mccormick1[97]: - u[97] + r[97] <= 0
 mccormick1[98]: - u[98] + r[98] <= 0
 mccormick1[99]: - u[99] + r[99] <= 0
 mccormick1[100]: - u[100] + r[100] <= 0
 mccormick1[101]: - u[101] + r[101] <= 0
 mccormick1[102]: - u[102] + r[102] <= 0
 mccormick1[103]: - u[103] + r[103] <= 0
 mccormick1[104]: - u[104] + r[104] <= 0
 mccormick1[105]: - u[105] + r[105] <= 0
 mccormick1[106]: - u[106] + r[106] <= 0
 mccormick1[107]: - u[107] + r[107] <= 0
 mccormick1[108]: - u[108] + r[108] <= 0
 mccormick1[109]: - u[109] + r[109] <= 0
 mccormick2[0]: - x[0] + r[0] <= 0
 mccormick2[1]: - x[1] + r[1] <= 0
 mccormick2[2]: - x[2] + r[2] <= 0
 mccormick2[3]: - x[3] + r[3] <= 0
 mccormick2[4]: - x[4] + r[4] <= 0
 mccormick2[5]: - x[5] + r[5] <= 0
 mccormick2[6]: - x[6] + r[6] <= 0
 mccormick2[7]: - x[7] + r[7] <= 0
 mccormick2[8]: - x[8] + r[8] <= 0
 mccormick2[9]: - x[9] + r[9] <= 0
 mccormick2[10]: - x[10] + r[10] <= 0
 mccormick2[11]: - x[11] + r[11] <= 0
 mccormick2[12]: - x[12] + r[12] <= 0
 mccormick2[13]: - x[13] + r[13] <= 0
 mccormick2[14]: - x[14] + r[14] <= 0
 mccormick2[15]: - x[15] + r[15] <= 0
 mccormick2[16]: - x[16] + r[16] <= 0
 mccormick2[17]: - x[17] + r[17] <= 0
 mccormick2[18]: - x[18] + r[18] <= 0
 mccormick2[19]: - x[19] + r[19] <= 0
 mccormick2[20]: - x[20] + r[20] <= 0
 mccormick2[21]: - x[21] + r[21] <= 0
 mccormick2[22]: - x[22] + r[22] <= 0
 mccormick2[23]: - x[23] + r[23] <= 0
 mccormick2[24]: - x[24] + r[24] <= 0
 mccormick2[25]: - x[25] + r[25] <= 0
 mccormick2[26]: - x[26] + r[26] <= 0
 mccormick2[27]: - x[27] + r[27] <= 0
 mccormick2[28]: - x[28] + r[28] <= 0
 mccormick2[29]: - x[29] + r[29] <= 0
 mccormick2[30]: - x[30] + r[30] <= 0
 mccormick2[31]: - x[31] + r[31] <= 0
 mccormick2[32]: - x[32] + r[32] <= 0
 mccormick2[33]: - x[33] + r[33] <= 0
 mccormick2[34]: - x[34] + r[34] <= 0
 mccormick2[35]: - x[35] + r[35] <= 0
 mccormick2[36]: - x[36] + r[36] <= 0
 mccormick2[37]: - x[37] + r[37] <= 0
 mccormick2[38]: - x[38] + r[38] <= 0
 mccormick2[39]: - x[39] + r[39] <= 0
 mccormick2[40]: - x[40] + r[40] <= 0
 mccormick2[41]: - x[41] + r[41] <= 0
 mccormick2[42]: - x[42] + r[42] <= 0
 mccormick2[43]: - x[43] + r[43] <= 0
 mccormick2[44]: - x[44] + r[44] <= 0
 mccormick2[45]: - x[45] + r[45] <= 0
 mccormick2[46]: - x[46] + r[46] <= 0
 mccormick2[47]: - x[47] + r[47] <= 0
 mccormick2[48]: - x[48] + r[48] <= 0
 mccormick2[49]: - x[49] + r[49] <= 0
 mccormick2[50]: - x[50] + r[50] <= 0
 mccormick2[51]: - x[51] + r[51] <= 0
 mccormick2[52]: - x[52] + r[52] <= 0
 mccormick2[53]: - x[53] + r[53] <= 0
 mccormick2[54]: - x[54] + r[54] <= 0
 mccormick2[55]: - x[55] + r[55] <= 0
 mccormick2[56]: - x[56] + r[56] <= 0
 mccormick2[57]: - x[57] + r[57] <= 0
 mccormick2[58]: - x[58] + r[58] <= 0
 mccormick2[59]: - x[59] + r[59] <= 0
 mccormick2[60]: - x[60] + r[60] <= 0
 mccormick2[61]: - x[61] + r[61] <= 0
 mccormick2[62]: - x[62] + r[62] <= 0
 mccormick2[63]: - x[63] + r[63] <= 0
 mccormick2[64]: - x[64] + r[64] <= 0
 mccormick2[65]: - x[65] + r[65] <= 0
 mccormick2[66]: - x[66] + r[66] <= 0
 mccormick2[67]: - x[67] + r[67] <= 0
 mccormick2[68]: - x[68] + r[68] <= 0
 mccormick2[69]: - x[69] + r[69] <= 0
 mccormick2[70]: - x[70] + r[70] <= 0
 mccormick2[71]: - x[71] + r[71] <= 0
 mccormick2[72]: - x[72] + r[72] <= 0
 mccormick2[73]: - x[73] + r[73] <= 0
 mccormick2[74]: - x[74] + r[74] <= 0
 mccormick2[75]: - x[75] + r[75] <= 0
 mccormick2[76]: - x[76] + r[76] <= 0
 mccormick2[77]: - x[77] + r[77] <= 0
 mccormick2[78]: - x[78] + r[78] <= 0
 mccormick2[79]: - x[79] + r[79] <= 0
 mccormick2[80]: - x[80] + r[80] <= 0
 mccormick2[81]: - x[81] + r[81] <= 0
 mccormick2[82]: - x[82] + r[82] <= 0
 mccormick2[83]: - x[83] + r[83] <= 0
 mccormick2[84]: - x[84] + r[84] <= 0
 mccormick2[85]: - x[85] + r[85] <= 0
 mccormick2[86]: - x[86] + r[86] <= 0
 mccormick2[87]: - x[87] + r[87] <= 0
 mccormick2[88]: - x[88] + r[88] <= 0
 mccormick2[89]: - x[89] + r[89] <= 0
 mccormick2[90]: - x[90] + r[90] <= 0
 mccormick2[91]: - x[91] + r[91] <= 0
 mccormick2[92]: - x[92] + r[92] <= 0
 mccormick2[93]: - x[93] + r[93] <= 0
 mccormick2[94]: - x[94] + r[94] <= 0
 mccormick2[95]: - x[95] + r[95] <= 0
 mccormick2[96]: - x[96] + r[96] <= 0
 mccormick2[97]: - x[97] + r[97] <= 0
 mccormick2[98]: - x[98] + r[98] <= 0
 mccormick2[99]: - x[99] + r[99] <= 0
 mccormick2[100]: - x[100] + r[100] <= 0
 mccormick2[101]: - x[101] + r[101] <= 0
 mccormick2[102]: - x[102] + r[102] <= 0
 mccormick2[103]: - x[103] + r[103] <= 0
 mccormick2[104]: - x[104] + r[104] <= 0
 mccormick2[105]: - x[105] + r[105] <= 0
 mccormick2[106]: - x[106] + r[106] <= 0
 mccormick2[107]: - x[107] + r[107] <= 0
 mccormick2[108]: - x[108] + r[108] <= 0
 mccormick2[109]: - x[109] + r[109] <= 0
 mccormick3[0]: x[0] + u[0] - r[0] <= 1
 mccormick3[1]: x[1] + u[1] - r[1] <= 1
 mccormick3[2]: x[2] + u[2] - r[2] <= 1
 mccormick3[3]: x[3] + u[3] - r[3] <= 1
 mccormick3[4]: x[4] + u[4] - r[4] <= 1
 mccormick3[5]: x[5] + u[5] - r[5] <= 1
 mccormick3[6]: x[6] + u[6] - r[6] <= 1
 mccormick3[7]: x[7] + u[7] - r[7] <= 1
 mccormick3[8]: x[8] + u[8] - r[8] <= 1
 mccormick3[9]: x[9] + u[9] - r[9] <= 1
 mccormick3[10]: x[10] + u[10] - r[10] <= 1
 mccormick3[11]: x[11] + u[11] - r[11] <= 1
 mccormick3[12]: x[12] + u[12] - r[12] <= 1
 mccormick3[13]: x[13] + u[13] - r[13] <= 1
 mccormick3[14]: x[14] + u[14] - r[14] <= 1
 mccormick3[15]: x[15] + u[15] - r[15] <= 1
 mccormick3[16]: x[16] + u[16] - r[16] <= 1
 mccormick3[17]: x[17] + u[17] - r[17] <= 1
 mccormick3[18]: x[18] + u[18] - r[18] <= 1
 mccormick3[19]: x[19] + u[19] - r[19] <= 1
 mccormick3[20]: x[20] + u[20] - r[20] <= 1
 mccormick3[21]: x[21] + u[21] - r[21] <= 1
 mccormick3[22]: x[22] + u[22] - r[22] <= 1
 mccormick3[23]: x[23] + u[23] - r[23] <= 1
 mccormick3[24]: x[24] + u[24] - r[24] <= 1
 mccormick3[25]: x[25] + u[25] - r[25] <= 1
 mccormick3[26]: x[26] + u[26] - r[26] <= 1
 mccormick3[27]: x[27] + u[27] - r[27] <= 1
 mccormick3[28]: x[28] + u[28] - r[28] <= 1
 mccormick3[29]: x[29] + u[29] - r[29] <= 1
 mccormick3[30]: x[30] + u[30] - r[30] <= 1
 mccormick3[31]: x[31] + u[31] - r[31] <= 1
 mccormick3[32]: x[32] + u[32] - r[32] <= 1
 mccormick3[33]: x[33] + u[33] - r[33] <= 1
 mccormick3[34]: x[34] + u[34] - r[34] <= 1
 mccormick3[35]: x[35] + u[35] - r[35] <= 1
 mccormick3[36]: x[36] + u[36] - r[36] <= 1
 mccormick3[37]: x[37] + u[37] - r[37] <= 1
 mccormick3[38]: x[38] + u[38] - r[38] <= 1
 mccormick3[39]: x[39] + u[39] - r[39] <= 1
 mccormick3[40]: x[40] + u[40] - r[40] <= 1
 mccormick3[41]: x[41] + u[41] - r[41] <= 1
 mccormick3[42]: x[42] + u[42] - r[42] <= 1
 mccormick3[43]: x[43] + u[43] - r[43] <= 1
 mccormick3[44]: x[44] + u[44] - r[44] <= 1
 mccormick3[45]: x[45] + u[45] - r[45] <= 1
 mccormick3[46]: x[46] + u[46] - r[46] <= 1
 mccormick3[47]: x[47] + u[47] - r[47] <= 1
 mccormick3[48]: x[48] + u[48] - r[48] <= 1
 mccormick3[49]: x[49] + u[49] - r[49] <= 1
 mccormick3[50]: x[50] + u[50] - r[50] <= 1
 mccormick3[51]: x[51] + u[51] - r[51] <= 1
 mccormick3[52]: x[52] + u[52] - r[52] <= 1
 mccormick3[53]: x[53] + u[53] - r[53] <= 1
 mccormick3[54]: x[54] + u[54] - r[54] <= 1
 mccormick3[55]: x[55] + u[55] - r[55] <= 1
 mccormick3[56]: x[56] + u[56] - r[56] <= 1
 mccormick3[57]: x[57] + u[57] - r[57] <= 1
 mccormick3[58]: x[58] + u[58] - r[58] <= 1
 mccormick3[59]: x[59] + u[59] - r[59] <= 1
 mccormick3[60]: x[60] + u[60] - r[60] <= 1
 mccormick3[61]: x[61] + u[61] - r[61] <= 1
 mccormick3[62]: x[62] + u[62] - r[62] <= 1
 mccormick3[63]: x[63] + u[63] - r[63] <= 1
 mccormick3[64]: x[64] + u[64] - r[64] <= 1
 mccormick3[65]: x[65] + u[65] - r[65] <= 1
 mccormick3[66]: x[66] + u[66] - r[66] <= 1
 mccormick3[67]: x[67] + u[67] - r[67] <= 1
 mccormick3[68]: x[68] + u[68] - r[68] <= 1
 mccormick3[69]: x[69] + u[69] - r[69] <= 1
 mccormick3[70]: x[70] + u[70] - r[70] <= 1
 mccormick3[71]: x[71] + u[71] - r[71] <= 1
 mccormick3[72]: x[72] + u[72] - r[72] <= 1
 mccormick3[73]: x[73] + u[73] - r[73] <= 1
 mccormick3[74]: x[74] + u[74] - r[74] <= 1
 mccormick3[75]: x[75] + u[75] - r[75] <= 1
 mccormick3[76]: x[76] + u[76] - r[76] <= 1
 mccormick3[77]: x[77] + u[77] - r[77] <= 1
 mccormick3[78]: x[78] + u[78] - r[78] <= 1
 mccormick3[79]: x[79] + u[79] - r[79] <= 1
 mccormick3[80]: x[80] + u[80] - r[80] <= 1
 mccormick3[81]: x[81] + u[81] - r[81] <= 1
 mccormick3[82]: x[82] + u[82] - r[82] <= 1
 mccormick3[83]: x[83] + u[83] - r[83] <= 1
 mccormick3[84]: x[84] + u[84] - r[84] <= 1
 mccormick3[85]: x[85] + u[85] - r[85] <= 1
 mccormick3[86]: x[86] + u[86] - r[86] <= 1
 mccormick3[87]: x[87] + u[87] - r[87] <= 1
 mccormick3[88]: x[88] + u[88] - r[88] <= 1
 mccormick3[89]: x[89] + u[89] - r[89] <= 1
 mccormick3[90]: x[90] + u[90] - r[90] <= 1
 mccormick3[91]: x[91] + u[91] - r[91] <= 1
 mccormick3[92]: x[92] + u[92] - r[92] <= 1
 mccormick3[93]: x[93] + u[93] - r[93] <= 1
 mccormick3[94]: x[94] + u[94] - r[94] <= 1
 mccormick3[95]: x[95] + u[95] - r[95] <= 1
 mccormick3[96]: x[96] + u[96] - r[96] <= 1
 mccormick3[97]: x[97] + u[97] - r[97] <= 1
 mccormick3[98]: x[98] + u[98] - r[98] <= 1
 mccormick3[99]: x[99] + u[99] - r[99] <= 1
 mccormick3[100]: x[100] + u[100] - r[100] <= 1
 mccormick3[101]: x[101] + u[101] - r[101] <= 1
 mccormick3[102]: x[102] + u[102] - r[102] <= 1
 mccormick3[103]: x[103] + u[103] - r[103] <= 1
 mccormick3[104]: x[104] + u[104] - r[104] <= 1
 mccormick3[105]: x[105] + u[105] - r[105] <= 1
 mccormick3[106]: x[106] + u[106] - r[106] <= 1
 mccormick3[107]: x[107] + u[107] - r[107] <= 1
 mccormick3[108]: x[108] + u[108] - r[108] <= 1
 mccormick3[109]: x[109] + u[109] - r[109] <= 1
Bounds
Binaries
 x[0] x[1] x[2] x[3] x[4] x[5] x[6] x[7] x[8] x[9] x[10] x[11] x[12] x[13]
 x[14] x[15] x[16] x[17] x[18] x[19] x[20] x[21] x[22] x[23] x[24] x[25]
 x[26] x[27] x[28] x[29] x[30] x[31] x[32] x[33] x[34] x[35] x[36] x[37]
 x[38] x[39] x[40] x[41] x[42] x[43] x[44] x[45] x[46] x[47] x[48] x[49]
 x[50] x[51] x[52] x[53] x[54] x[55] x[56] x[57] x[58] x[59] x[60] x[61]
 x[62] x[63] x[64] x[65] x[66] x[67] x[68] x[69] x[70] x[71] x[72] x[73]
 x[74] x[75] x[76] x[77] x[78] x[79] x[80] x[81] x[82] x[83] x[84] x[85]
 x[86] x[87] x[88] x[89] x[90] x[91] x[92] x[93] x[94] x[95] x[96] x[97]
 x[98] x[99] x[100] x[101] x[102] x[103] x[104] x[105] x[106] x[107] x[108]
 x[109] u[0] u[1] u[2] u[3] u[4] u[5] u[6] u[7] u[8] u[9] u[10] u[11] u[12]
 u[13] u[14] u[15] u[16] u[17] u[18] u[19] u[20] u[21] u[22] u[23] u[24]
 u[25] u[26] u[27] u[28] u[29] u[30] u[31] u[32] u[33] u[34] u[35] u[36]
 u[37] u[38] u[39] u[40] u[41] u[42] u[43] u[44] u[45] u[46] u[47] u[48]
 u[49] u[50] u[51] u[52] u[53] u[54] u[55] u[56] u[57] u[58] u[59] u[60]
 u[61] u[62] u[63] u[64] u[65] u[66] u[67] u[68] u[69] u[70] u[71] u[72]
 u[73] u[74] u[75] u[76] u[77] u[78] u[79] u[80] u[81] u[82] u[83] u[84]
 u[85] u[86] u[87] u[88] u[89] u[90] u[91] u[92] u[93] u[94] u[95] u[96]
 u[97] u[98] u[99] u[100] u[101] u[102] u[103] u[104] u[105] u[106] u[107]
 u[108] u[109] r[0] r[1] r[2] r[3] r[4] r[5] r[6] r[7] r[8] r[9] r[10]
 r[11] r[12] r[13] r[14] r[15] r[16] r[17] r[18] r[19] r[20] r[21] r[22]
 r[23] r[24] r[25] r[26] r[27] r[28] r[29] r[30] r[31] r[32] r[33] r[34]
 r[35] r[36] r[37] r[38] r[39] r[40] r[41] r[42] r[43] r[44] r[45] r[46]
 r[47] r[48] r[49] r[50] r[51] r[52] r[53] r[54] r[55] r[56] r[57] r[58]
 r[59] r[60] r[61] r[62] r[63] r[64] r[65] r[66] r[67] r[68] r[69] r[70]
 r[71] r[72] r[73] r[74] r[75] r[76] r[77] r[78] r[79] r[80] r[81] r[82]
 r[83] r[84] r[85] r[86] r[87] r[88] r[89] r[90] r[91] r[92] r[93] r[94]
 r[95] r[96] r[97] r[98] r[99] r[100] r[101] r[102] r[103] r[104] r[105]
 r[106] r[107] r[108] r[109]
End
