instances/knapsack/discrete_knapsack_uncertainty/knapsack_110_17.kp
14013
110
511

3 0.3 48
80 8.0 68
42 4.2 42
75 7.5 82
96 9.6 47
97 9.7 15
33 3.3 15
91 9.1 93
9 0.9 56
66 6.6 60
15 1.5 25
59 5.9 25
8 0.8 9
16 1.6 72
60 6.0 25
80 8.0 26
49 4.9 48
20 2.0 16
1 0.1 92
54 5.4 3
17 1.7 15
63 6.3 13
56 5.6 2
14 1.4 42
72 7.2 95
80 8.0 4
2 0.2 98
75 7.5 73
93 9.3 36
55 5.5 74
61 6.1 63
7 0.7 2
23 2.3 86
53 5.3 65
4 0.4 77
13 1.3 39
100 10.0 3
64 6.4 85
4 0.4 24
30 3.0 41
31 3.1 26
81 8.1 95
78 7.8 43
69 6.9 41
23 2.3 48
46 4.6 81
17 1.7 62
69 6.9 54
35 3.5 50
24 2.4 87
58 5.8 57
4 0.4 84
85 8.5 21
16 1.6 47
56 5.6 30
91 9.1 60
13 1.3 44
26 2.6 86
60 6.0 66
38 3.8 93
88 8.8 34
58 5.8 44
91 9.1 3
90 9.0 51
39 3.9 8
88 8.8 71
96 9.6 3
70 7.0 11
84 8.4 98
81 8.1 11
1 0.1 63
89 8.9 5
42 4.2 55
43 4.3 43
23 2.3 52
80 8.0 68
22 2.2 36
55 5.5 15
64 6.4 62
22 2.2 17
41 4.1 93
1 0.1 76
90 9.0 15
81 8.1 28
37 3.7 95
5 0.5 78
63 6.3 84
8 0.8 65
66 6.6 30
15 1.5 36
40 4.0 28
60 6.0 99
92 9.2 55
79 7.9 74
8 0.8 62
85 8.5 28
17 1.7 63
20 2.0 74
68 6.8 26
44 4.4 46
73 7.3 38
72 7.2 59
66 6.6 100
16 1.6 35
29 2.9 73
70 7.0 89
27 2.7 44
30 3.0 2
2 0.2 76
77 7.7 26

61094
509

[0.022385526352320648 3.2905720645452443 2.966165308086234 3.205336137012532 4.277444560707116 0.5220869256343793 3.045942871142341 4.043176123439356 1.8943247886595727 0.6665309254237669 3.205413659210857 2.9870583028445266 0.20004995747974644 1.4797756455048428 1.1950858161685551 1.8185121916201943 2.4201962069808816 4.317510480291516 0.4499386510390959 0.1631650389852092 2.1577795227303898 0.13447050338099945 4.338602305083675 3.9214514575824264 0.6432080750219425 0.521447447719387 0.8082007838899805 1.7815161744416659 3.2458774188668618 0.9426389757646304 4.558111610947888 4.052641644330782 3.372263151832176 1.643041338136276 2.0008090649887977 3.648019298561785 0.3466879575552535 1.3855236530203587 4.116575047500352 2.818814628840663 2.036501998260552 1.3910869241564474 1.3341658167574209 1.8259527309082173 3.0688667867569333 0.6943132879785995 4.097544722596283 3.4321897755485087 1.9354645819115937 3.2621522861161223 3.413780522398899 2.329208037736415 3.984030736580022 3.1462520413229877 1.7968036753444592 3.5400134500266205 2.6888678512285824 0.8039938572074994 1.6536397622694945 0.16341665727628735 3.0722802166422514 0.2951161399899901 0.5096107365551467 4.587427656255376 3.7927498746263217 2.650258878676511 1.8297531224464345 3.5332908075326257 0.3510357217143076 3.976160753342485 4.464738383595611 1.9633038535138307 2.7460806162727702 3.1121995276294117 2.850376512849617 2.1804956222505467 3.1974280083324578 0.27703127138715616 1.7104235698559678 4.3442313519634 3.7031143309182224 0.09600110056234332 1.6740197152797958 2.224075399062879 4.2886738689770185 4.5079552309185384 2.2932412786644587 4.021960038262086 1.4122230938729505 1.5526564411545531 1.5184513091962173 4.530297154424964 3.053835759635363 1.0013154198875676 2.2198673761572416 2.5725828592019235 3.0841653431481877 0.9202523772286422 3.449918739344433 0.7762205455393506 1.5287914741361295 0.4990874540950853 1.830353370040311 0.4230166720569322 0.9197207017478036 1.759675534620782 1.091628937812666 0.09024209557076632 1.1273059161911279 0.44778018236416534]

[2 46 60 13 38 36 83 22 87 68 42 69 38 86 35 27 39 50 95 32 7 46 82 97 3 82 76 46 36 9 24 98 6 59 58 3 78 19 34 25 5 12 100 84 13 9 4 4 29 46 93 10 95 22 91 90 63 65 82 16 83 77 86 53 94 6 3 77 70 56 44 24 72 45 18 23 37 17 43 25 76 56 17 36 8 28 74 66 56 17 15 67 51 86 86 91 7 91 94 46 15 18 96 46 99 16 97 17 93 39]
